(set-logic ALL)
(declare-const x String)
(declare-const y String)
(declare-const m String)
(declare-const n String)
(assert (str.in_re x (re.union (re.* (str.to_re "b")) (str.to_re "' '"))))
(assert (str.in_re x (re.union (re.union (re.+ (str.to_re "c")) (re.* (str.to_re ""))) (str.to_re "'\u{b}'"))))
(assert (= 3 (str.to_int x)))
(check-sat)
